NAME: test112
TYPE: TSP
DIMENSION: 20
EDGE_WEIGHT_TYPE: EUC_2D
NODE_COORD_SECTION
1 65.58056325374653 80.9371113231276
2 85.00310561783975 19.329223161112907
3 46.86100266409563 93.14935473996638
4 11.054253123030588 37.937038439192115
5 31.215823981499025 71.74741493313311
6 72.0130162968027 8.785007170125292
7 17.183265185042263 5.776938626076122
8 7.443801404212824 20.64194076120235
9 0.31620209198437443 48.473641611602716
10 14.673349964203453 94.30474836304747
11 64.26249916840567 14.416118497328013
12 51.81752431585356 99.5478479855201
13 39.36437904661118 47.82126065786401
14 10.06420992014968 66.55135478647847
15 21.29642523007996 50.341425924264925
16 90.53319734811078 56.48404073374941
17 19.201322437080727 73.27634991908522
18 55.267223226289005 27.011326438768247
19 39.81160945358998 78.15276905381228
20 19.318710749745904 25.932644184235876
EOF
